peakDumbCharging = 22200; 
Machine = anon_enum(16); 
machineSpeed = [3700,3700,3700,3700,3700,3700,3700,3700,3700,3700,3700,3700,3700,3700,3700,3700]; 
machineLoad = [3700,3700,3700,3700,3700,3700,3700,3700,3700,3700,3700,3700,3700,3700,3700,3700]; 
Car = anon_enum(33); 
demandCar = [1840,21400,6760,5160,1440,2840,8040,11480,7480,4280,14040,160,5440,14240,4960,11760,7720,6000,32280,7240,5480,19120,8320,12160,12600,9400,8040,10840,23040,5120,33560,36680,29240]; 
arrivalCar = [82,76,74,72,72,71,71,69,68,67,66,66,64,61,59,57,56,56,56,53,51,50,49,48,47,44,43,38,38,36,34,34,30]; 
departureCar = [84,85,77,75,74,73,76,75,73,70,72,67,68,67,62,62,60,61,74,60,55,58,52,52,55,50,59,43,57,40,59,65,49]; 
